c nombre: 41
c densidad: 0.5
p edges 30 215
e 1 2
e 1 3
e 1 5
e 1 6
e 1 15
e 1 16
e 1 17
e 1 18
e 1 19
e 1 21
e 1 26
e 1 28
e 1 30
e 2 3
e 2 4
e 2 13
e 2 15
e 2 17
e 2 20
e 2 22
e 2 23
e 2 24
e 2 25
e 2 28
e 3 4
e 3 8
e 3 9
e 3 10
e 3 12
e 3 13
e 3 18
e 3 21
e 3 25
e 3 26
e 3 27
e 3 30
e 4 5
e 4 7
e 4 14
e 4 17
e 4 19
e 4 21
e 4 22
e 4 23
e 4 24
e 4 25
e 4 29
e 4 30
e 5 6
e 5 12
e 5 15
e 5 19
e 5 22
e 5 24
e 5 28
e 5 29
e 6 7
e 6 10
e 6 11
e 6 16
e 6 17
e 6 20
e 6 21
e 6 26
e 6 28
e 6 29
e 7 9
e 7 11
e 7 12
e 7 14
e 7 21
e 7 23
e 7 25
e 7 27
e 7 28
e 7 29
e 7 30
e 8 10
e 8 13
e 8 14
e 8 15
e 8 18
e 8 19
e 8 21
e 8 22
e 8 23
e 8 26
e 8 29
e 8 30
e 9 11
e 9 12
e 9 13
e 9 14
e 9 15
e 9 16
e 9 19
e 9 20
e 9 22
e 9 23
e 9 25
e 9 26
e 10 11
e 10 14
e 10 20
e 10 22
e 10 23
e 10 27
e 11 13
e 11 16
e 11 17
e 11 18
e 11 20
e 11 22
e 11 23
e 11 24
e 11 25
e 11 26
e 11 27
e 11 28
e 11 29
e 12 16
e 12 17
e 12 18
e 12 19
e 12 20
e 12 24
e 12 25
e 12 26
e 12 27
e 12 28
e 12 29
e 13 14
e 13 15
e 13 20
e 13 22
e 13 23
e 13 25
e 13 26
e 13 28
e 13 30
e 14 15
e 14 16
e 14 17
e 14 18
e 14 22
e 14 24
e 14 25
e 14 26
e 14 27
e 14 28
e 15 18
e 15 21
e 15 22
e 15 23
e 15 24
e 15 25
e 15 28
e 15 29
e 15 30
e 16 19
e 16 27
e 16 28
e 16 29
e 16 30
e 17 19
e 17 20
e 17 21
e 17 22
e 17 24
e 17 27
e 17 29
e 18 21
e 18 24
e 18 25
e 18 26
e 18 28
e 18 29
e 18 30
e 19 20
e 19 21
e 19 23
e 19 26
e 19 28
e 19 29
e 19 30
e 20 21
e 20 24
e 20 25
e 20 28
e 20 30
e 21 22
e 21 24
e 21 25
e 21 27
e 21 28
e 22 26
e 22 27
e 22 29
e 22 30
e 23 24
e 23 25
e 23 27
e 23 28
e 23 29
e 23 30
e 24 26
e 24 27
e 24 28
e 24 29
e 25 26
e 25 28
e 25 29
e 25 30
e 26 29
e 28 30
